NAME : random_18
COMMENT : 60 random nodes
TYPE : TSP
DIMENSION : 60
EDGE_WEIGHT_TYPE : EUC_2D
NODE_COORD_SECTION
1 298 350
2 757 621
3 194 786
4 697 237
5 938 974
6 852 512
7 904 573
8 77 629
9 51 880
10 7 878
11 958 426
12 719 51
13 702 90
14 425 863
15 116 204
16 798 270
17 753 483
18 947 862
19 630 97
20 244 115
21 174 507
22 309 586
23 127 930
24 186 904
25 809 558
26 621 964
27 534 764
28 222 183
29 367 304
30 766 228
31 569 316
32 760 467
33 294 768
34 234 980
35 830 168
36 63 124
37 851 826
38 827 469
39 174 459
40 221 337
41 801 691
42 426 976
43 753 456
44 323 236
45 757 599
46 559 656
47 212 110
48 84 952
49 872 398
50 277 951
51 172 493
52 242 2
53 230 436
54 302 762
55 95 910
56 885 916
57 200 179
58 882 717
59 291 805
60 457 825
EOF